
Gurobi 13.0.1 (mac64[arm], Python) logging started Fri Apr 17 13:07:06 2026

Set parameter LogToConsole to value 0
Set parameter Username
Set parameter LicenseID to value 2799845
Set parameter LogFile to value "/Users/monitsharma/SMU-Quantum-Repos/quantum-optimization-benchmarks/classical_solutions/results/qap/logs/chr12b_solver.log"
Academic license - for non-commercial use only - expires 2027-03-30
Set parameter TimeLimit to value 100
Set parameter Threads to value 0
Set parameter MIPGap to value 0
Set parameter MIPFocus to value 0
Set parameter DisplayInterval to value 5
Set parameter NonConvex to value 2
Gurobi Optimizer version 13.0.1 build v13.0.1rc0 (mac64[arm] - Darwin 25.4.0 25E253)

CPU model: Apple M3 Pro
Thread count: 12 physical cores, 12 logical processors, using up to 12 threads

Non-default parameters:
TimeLimit  100
MIPGap  0
LogToConsole  0
NonConvex  2

Optimize a model with 24 rows, 144 columns and 288 nonzeros (Min)
Model fingerprint: 0x2bac253e
Model has 0 linear objective coefficients
Model has 1430 quadratic objective terms
Variable types: 0 continuous, 144 integer (144 binary)
Coefficient statistics:
  Matrix range     [1e+00, 1e+00]
  Objective range  [0e+00, 0e+00]
  QObjective range [2e+01, 4e+04]
  Bounds range     [1e+00, 1e+00]
  RHS range        [1e+00, 1e+00]

Found heuristic solution: objective 45540.000000
Presolve time: 0.01s
Presolved: 60 rows, 180 columns, 1790 nonzeros
Variable types: 0 continuous, 180 integer (144 binary)

Root relaxation: objective 0.000000e+00, 37 iterations, 0.00 seconds (0.00 work units)

    Nodes    |    Current Node    |     Objective Bounds      |     Work
 Expl Unexpl |  Obj  Depth IntInf | Incumbent    BestBd   Gap | It/Node Time

     0     0    0.00000    0   12 45540.0000    0.00000   100%     -    0s
H    0     0                    38134.000000    0.00000   100%     -    0s
H    0     0                    31096.000000    0.00000   100%     -    0s
H    0     0                    21894.000000    0.00000   100%     -    0s
     0     0    0.00000    0   21 21894.0000    0.00000   100%     -    0s
H    0     0                    21550.000000    0.00000   100%     -    0s
H    0     0                    19604.000000    0.00000   100%     -    0s
     0     0    0.00000    0   23 19604.0000    0.00000   100%     -    0s
H    0     0                    14086.000000    0.00000   100%     -    0s
     0     0    0.00000    0   23 14086.0000    0.00000   100%     -    0s
     0     0    0.00000    0    9 14086.0000    0.00000   100%     -    0s
     0     0    0.00000    0   22 14086.0000    0.00000   100%     -    0s
     0     0    0.00000    0    8 14086.0000    0.00000   100%     -    0s
     0     0 1550.00000    0   19 14086.0000 1550.00000  89.0%     -    0s
     0     0 1550.00000    0   13 14086.0000 1550.00000  89.0%     -    0s
     0     0 1692.57479    0   14 14086.0000 1692.57479  88.0%     -    0s
     0     0 1762.00000    0   25 14086.0000 1762.00000  87.5%     -    0s
     0     0 1762.00000    0   12 14086.0000 1762.00000  87.5%     -    0s
H    0     0                    13500.000000 2355.08239  82.6%     -    0s
     0     0 2355.08239    0   11 13500.0000 2355.08239  82.6%     -    0s
     0     0 2616.05670    0   21 13500.0000 2616.05670  80.6%     -    0s
     0     0 2616.05670    0    8 13500.0000 2616.05670  80.6%     -    0s
     0     0 2790.00000    0   18 13500.0000 2790.00000  79.3%     -    0s
     0     0 3146.00000    0   22 13500.0000 3146.00000  76.7%     -    0s
     0     0 3146.00000    0   12 13500.0000 3146.00000  76.7%     -    0s
H    0     0                    12030.000000 3246.96091  73.0%     -    0s
     0     0 3246.96091    0   12 12030.0000 3246.96091  73.0%     -    0s
H    0     0                    11636.000000 3316.00000  71.5%     -    0s
H    0     0                    11214.000000 3316.00000  70.4%     -    0s
     0     0 3334.00000    0   25 11214.0000 3334.00000  70.3%     -    0s
     0     0 3334.00000    0   14 11214.0000 3334.00000  70.3%     -    0s
     0     0 3670.08841    0   14 11214.0000 3670.08841  67.3%     -    0s
     0     0 3670.08841    0   14 11214.0000 3670.08841  67.3%     -    0s
H    0     0                    10410.000000 3670.08841  64.7%     -    0s
     0     2 3670.08841    0   14 10410.0000 3670.08841  64.7%     -    0s
H   91   115                    9762.0000000 3670.08841  62.4%   6.3    0s
H  215   225                    9742.0000000 3670.08841  62.3%   6.7    0s

Cutting planes:
  Gomory: 5
  Cover: 241
  Implied bound: 1
  Clique: 4
  MIR: 76
  StrongCG: 20
  GUB cover: 18
  Inf proof: 12
  Zero half: 1
  RLT: 23
  Relax-and-lift: 9

Explored 5325 nodes (64193 simplex iterations) in 0.21 seconds (0.30 work units)
Thread count was 12 (of 12 available processors)

Solution count 10: 9742 9762 10410 ... 21550

Optimal solution found (tolerance 0.00e+00)
Best objective 9.742000000000e+03, best bound 9.742000000000e+03, gap 0.0000%
